20
1 0 5
2 0 9
2 1 5
3 0 6
3 1 7
3 2 2
4 0 6
4 1 4
4 2 3
4 3 1
5 0 7
5 1 8
5 2 7
5 3 5
5 4 5
6 0 6
6 1 7
6 2 2
6 3 8
6 4 5
6 5 8
7 0 4
7 1 2
7 2 1
7 3 7
7 4 7
7 5 10
7 6 6
8 0 10
8 1 1
8 2 4
8 3 1
8 4 2
8 5 6
8 6 3
8 7 10
9 0 2
9 1 4
9 2 7
9 3 3
9 4 4
9 5 2
9 6 3
9 7 2
9 8 9
10 0 9
10 1 10
10 2 5
10 3 9
10 4 6
10 5 2
10 6 1
10 7 8
10 8 9
10 9 2
11 0 2
11 1 7
11 2 3
11 3 6
11 4 2
11 5 1
11 6 9
11 7 8
11 8 10
11 9 1
11 10 8
12 0 10
12 1 5
12 2 9
12 3 7
12 4 1
12 5 7
12 6 1
12 7 2
12 8 9
12 9 3
12 10 10
12 11 7
13 0 3
13 1 7
13 2 4
13 3 5
13 4 5
13 5 3
13 6 8
13 7 6
13 8 7
13 9 7
13 10 10
13 11 5
13 12 10
14 0 3
14 1 6
14 2 9
14 3 7
14 4 9
14 5 3
14 6 1
14 7 7
14 8 10
14 9 2
14 10 8
14 11 5
14 12 5
14 13 5
15 0 8
15 1 3
15 2 7
15 3 4
15 4 2
15 5 3
15 6 10
15 7 3
15 8 3
15 9 5
15 10 9
15 11 4
15 12 9
15 13 1
15 14 3
16 0 4
16 1 8
16 2 8
16 3 8
16 4 9
16 5 5
16 6 2
16 7 4
16 8 5
16 9 9
16 10 9
16 11 5
16 12 4
16 13 7
16 14 6
16 15 1
17 0 7
17 1 4
17 2 7
17 3 5
17 4 3
17 5 8
17 6 1
17 7 6
17 8 8
17 9 6
17 10 8
17 11 8
17 12 1
17 13 5
17 14 10
17 15 4
17 16 8
18 0 9
18 1 9
18 2 3
18 3 3
18 4 8
18 5 6
18 6 5
18 7 1
18 8 7
18 9 5
18 10 8
18 11 1
18 12 6
18 13 1
18 14 6
18 15 7
18 16 7
18 17 7
19 0 6
19 1 8
19 2 4
19 3 9
19 4 7
19 5 1
19 6 5
19 7 10
19 8 4
19 9 8
19 10 10
19 11 10
19 12 4
19 13 10
19 14 6
19 15 5
19 16 8
19 17 10
19 18 5
